56799
49, 3, 6, 28, 55, 26, 54, 9, 14, 2, 45, 11, 42, 33, 1, 27, 31, 25, 52, 12, 18, 4, 30, 47, 34, 53, 10, 22, 16, 15, 36, 46, 39, 29, 21, 23, 17, 48, 19, 32, 41, 13, 43, 40, 51, 7, 37, 5, 35, 24, 20, 50, 38, 8, 44
